p cnf 479 2052
1 0
-2 0
-3 0
-4 0
-5 0
-6 0
43 7 0
-43 -7 0
7 8 9 10 11 12 0
-295 -296 0
-295 -297 0
-296 -297 0
-298 -299 0
-7 295 0
-7 298 0
-8 295 0
-8 299 0
-9 296 0
-9 298 0
-10 296 0
-10 299 0
-11 297 0
-11 298 0
-12 297 0
-12 299 0
-7 1 13 0
-7 1 49 0
-7 13 49 0
-8 2 14 0
-8 2 50 0
-8 14 50 0
-9 3 15 0
-9 3 51 0
-9 15 51 0
-10 4 16 0
-10 4 52 0
-10 16 52 0
-11 5 17 0
-11 5 53 0
-11 17 53 0
-12 6 18 0
-12 6 54 0
-12 18 54 0
-7 -1 -13 -49 0
-8 -2 -14 -50 0
-9 -3 -15 -51 0
-10 -4 -16 -52 0
-11 -5 -17 -53 0
-12 -6 -18 -54 0
13 14 15 16 17 18 0
-300 -301 0
-300 -302 0
-301 -302 0
-303 -304 0
-13 300 0
-13 303 0
-14 300 0
-14 304 0
-15 301 0
-15 303 0
-16 301 0
-16 304 0
-17 302 0
-17 303 0
-18 302 0
-18 304 0
-13 7 19 0
-13 7 55 0
-13 19 55 0
-14 8 20 0
-14 8 56 0
-14 20 56 0
-15 9 21 0
-15 9 57 0
-15 21 57 0
-16 10 22 0
-16 10 58 0
-16 22 58 0
-17 11 23 0
-17 11 59 0
-17 23 59 0
-18 12 24 0
-18 12 60 0
-18 24 60 0
-13 -7 -19 -55 0
-14 -8 -20 -56 0
-15 -9 -21 -57 0
-16 -10 -22 -58 0
-17 -11 -23 -59 0
-18 -12 -24 -60 0
19 20 21 22 23 24 0
-305 -306 0
-305 -307 0
-306 -307 0
-308 -309 0
-19 305 0
-19 308 0
-20 305 0
-20 309 0
-21 306 0
-21 308 0
-22 306 0
-22 309 0
-23 307 0
-23 308 0
-24 307 0
-24 309 0
-19 13 25 0
-19 13 61 0
-19 25 61 0
-20 14 26 0
-20 14 62 0
-20 26 62 0
-21 15 27 0
-21 15 63 0
-21 27 63 0
-22 16 28 0
-22 16 64 0
-22 28 64 0
-23 17 29 0
-23 17 65 0
-23 29 65 0
-24 18 30 0
-24 18 66 0
-24 30 66 0
-19 -13 -25 -61 0
-20 -14 -26 -62 0
-21 -15 -27 -63 0
-22 -16 -28 -64 0
-23 -17 -29 -65 0
-24 -18 -30 -66 0
25 26 27 28 29 30 0
-310 -311 0
-310 -312 0
-311 -312 0
-313 -314 0
-25 310 0
-25 313 0
-26 310 0
-26 314 0
-27 311 0
-27 313 0
-28 311 0
-28 314 0
-29 312 0
-29 313 0
-30 312 0
-30 314 0
-25 19 31 0
-25 19 67 0
-25 31 67 0
-26 20 32 0
-26 20 68 0
-26 32 68 0
-27 21 33 0
-27 21 69 0
-27 33 69 0
-28 22 34 0
-28 22 70 0
-28 34 70 0
-29 23 35 0
-29 23 71 0
-29 35 71 0
-30 24 36 0
-30 24 72 0
-30 36 72 0
-25 -19 -31 -67 0
-26 -20 -32 -68 0
-27 -21 -33 -69 0
-28 -22 -34 -70 0
-29 -23 -35 -71 0
-30 -24 -36 -72 0
31 32 33 34 35 36 0
-315 -316 0
-315 -317 0
-316 -317 0
-318 -319 0
-31 315 0
-31 318 0
-32 315 0
-32 319 0
-33 316 0
-33 318 0
-34 316 0
-34 319 0
-35 317 0
-35 318 0
-36 317 0
-36 319 0
-31 25 37 0
-31 25 73 0
-31 37 73 0
-32 26 38 0
-32 26 74 0
-32 38 74 0
-33 27 39 0
-33 27 75 0
-33 39 75 0
-34 28 40 0
-34 28 76 0
-34 40 76 0
-35 29 41 0
-35 29 77 0
-35 41 77 0
-36 30 42 0
-36 30 78 0
-36 42 78 0
-31 -25 -37 -73 0
-32 -26 -38 -74 0
-33 -27 -39 -75 0
-34 -28 -40 -76 0
-35 -29 -41 -77 0
-36 -30 -42 -78 0
37 38 39 40 41 42 0
-320 -321 0
-320 -322 0
-321 -322 0
-323 -324 0
-37 320 0
-37 323 0
-38 320 0
-38 324 0
-39 321 0
-39 323 0
-40 321 0
-40 324 0
-41 322 0
-41 323 0
-42 322 0
-42 324 0
-37 79 0
-37 31 0
-38 80 0
-38 32 0
-39 81 0
-39 33 0
-40 82 0
-40 34 0
-41 83 0
-41 35 0
-42 84 0
-42 36 0
43 44 45 46 47 48 0
-325 -326 0
-325 -327 0
-326 -327 0
-328 -329 0
-43 325 0
-43 328 0
-44 325 0
-44 329 0
-45 326 0
-45 328 0
-46 326 0
-46 329 0
-47 327 0
-47 328 0
-48 327 0
-48 329 0
-43 85 49 0
-43 85 1 0
-43 49 1 0
-44 86 50 0
-44 86 2 0
-44 50 2 0
-45 87 51 0
-45 87 3 0
-45 51 3 0
-46 88 52 0
-46 88 4 0
-46 52 4 0
-47 89 53 0
-47 89 5 0
-47 53 5 0
-48 90 54 0
-48 90 6 0
-48 54 6 0
-43 -85 -49 -1 0
-44 -86 -50 -2 0
-45 -87 -51 -3 0
-46 -88 -52 -4 0
-47 -89 -53 -5 0
-48 -90 -54 -6 0
49 50 51 52 53 54 0
-330 -331 0
-330 -332 0
-331 -332 0
-333 -334 0
-49 330 0
-49 333 0
-50 330 0
-50 334 0
-51 331 0
-51 333 0
-52 331 0
-52 334 0
-53 332 0
-53 333 0
-54 332 0
-54 334 0
-49 91 55 7 0
-49 91 55 43 0
-49 91 7 43 0
-49 55 7 43 0
-50 92 56 8 0
-50 92 56 44 0
-50 92 8 44 0
-50 56 8 44 0
-51 93 57 9 0
-51 93 57 45 0
-51 93 9 45 0
-51 57 9 45 0
-52 94 58 10 0
-52 94 58 46 0
-52 94 10 46 0
-52 58 10 46 0
-53 95 59 11 0
-53 95 59 47 0
-53 95 11 47 0
-53 59 11 47 0
-54 96 60 12 0
-54 96 60 48 0
-54 96 12 48 0
-54 60 12 48 0
-49 -91 -55 -7 0
-49 -91 -55 -43 0
-49 -91 -7 -43 0
-49 -55 -7 -43 0
-50 -92 -56 -8 0
-50 -92 -56 -44 0
-50 -92 -8 -44 0
-50 -56 -8 -44 0
-51 -93 -57 -9 0
-51 -93 -57 -45 0
-51 -93 -9 -45 0
-51 -57 -9 -45 0
-52 -94 -58 -10 0
-52 -94 -58 -46 0
-52 -94 -10 -46 0
-52 -58 -10 -46 0
-53 -95 -59 -11 0
-53 -95 -59 -47 0
-53 -95 -11 -47 0
-53 -59 -11 -47 0
-54 -96 -60 -12 0
-54 -96 -60 -48 0
-54 -96 -12 -48 0
-54 -60 -12 -48 0
55 56 57 58 59 60 0
-335 -336 0
-335 -337 0
-336 -337 0
-338 -339 0
-55 335 0
-55 338 0
-56 335 0
-56 339 0
-57 336 0
-57 338 0
-58 336 0
-58 339 0
-59 337 0
-59 338 0
-60 337 0
-60 339 0
-55 97 61 13 0
-55 97 61 49 0
-55 97 13 49 0
-55 61 13 49 0
-56 98 62 14 0
-56 98 62 50 0
-56 98 14 50 0
-56 62 14 50 0
-57 99 63 15 0
-57 99 63 51 0
-57 99 15 51 0
-57 63 15 51 0
-58 100 64 16 0
-58 100 64 52 0
-58 100 16 52 0
-58 64 16 52 0
-59 101 65 17 0
-59 101 65 53 0
-59 101 17 53 0
-59 65 17 53 0
-60 102 66 18 0
-60 102 66 54 0
-60 102 18 54 0
-60 66 18 54 0
-55 -97 -61 -13 0
-55 -97 -61 -49 0
-55 -97 -13 -49 0
-55 -61 -13 -49 0
-56 -98 -62 -14 0
-56 -98 -62 -50 0
-56 -98 -14 -50 0
-56 -62 -14 -50 0
-57 -99 -63 -15 0
-57 -99 -63 -51 0
-57 -99 -15 -51 0
-57 -63 -15 -51 0
-58 -100 -64 -16 0
-58 -100 -64 -52 0
-58 -100 -16 -52 0
-58 -64 -16 -52 0
-59 -101 -65 -17 0
-59 -101 -65 -53 0
-59 -101 -17 -53 0
-59 -65 -17 -53 0
-60 -102 -66 -18 0
-60 -102 -66 -54 0
-60 -102 -18 -54 0
-60 -66 -18 -54 0
63 0
-61 0
-62 0
-64 0
-65 0
-66 0
105 69 21 57 0
-105 -69 0
-105 -21 0
-105 -57 0
-69 -21 0
-69 -57 0
-21 -57 0
70 0
-67 0
-68 0
-69 0
-71 0
-72 0
112 76 28 64 0
-112 -76 0
-112 -28 0
-112 -64 0
-76 -28 0
-76 -64 0
-28 -64 0
77 0
-73 0
-74 0
-75 0
-76 0
-78 0
119 83 35 71 0
-119 -83 0
-119 -35 0
-119 -71 0
-83 -35 0
-83 -71 0
-35 -71 0
79 80 81 82 83 84 0
-340 -341 0
-340 -342 0
-341 -342 0
-343 -344 0
-79 340 0
-79 343 0
-80 340 0
-80 344 0
-81 341 0
-81 343 0
-82 341 0
-82 344 0
-83 342 0
-83 343 0
-84 342 0
-84 344 0
-79 121 73 0
-79 121 37 0
-79 73 37 0
-80 122 74 0
-80 122 38 0
-80 74 38 0
-81 123 75 0
-81 123 39 0
-81 75 39 0
-82 124 76 0
-82 124 40 0
-82 76 40 0
-83 125 77 0
-83 125 41 0
-83 77 41 0
-84 126 78 0
-84 126 42 0
-84 78 42 0
-79 -121 -73 -37 0
-80 -122 -74 -38 0
-81 -123 -75 -39 0
-82 -124 -76 -40 0
-83 -125 -77 -41 0
-84 -126 -78 -42 0
85 86 87 88 89 90 0
-345 -346 0
-345 -347 0
-346 -347 0
-348 -349 0
-85 345 0
-85 348 0
-86 345 0
-86 349 0
-87 346 0
-87 348 0
-88 346 0
-88 349 0
-89 347 0
-89 348 0
-90 347 0
-90 349 0
-85 127 91 0
-85 127 43 0
-85 91 43 0
-86 128 92 0
-86 128 44 0
-86 92 44 0
-87 129 93 0
-87 129 45 0
-87 93 45 0
-88 130 94 0
-88 130 46 0
-88 94 46 0
-89 131 95 0
-89 131 47 0
-89 95 47 0
-90 132 96 0
-90 132 48 0
-90 96 48 0
-85 -127 -91 -43 0
-86 -128 -92 -44 0
-87 -129 -93 -45 0
-88 -130 -94 -46 0
-89 -131 -95 -47 0
-90 -132 -96 -48 0
91 92 93 94 95 96 0
-350 -351 0
-350 -352 0
-351 -352 0
-353 -354 0
-91 350 0
-91 353 0
-92 350 0
-92 354 0
-93 351 0
-93 353 0
-94 351 0
-94 354 0
-95 352 0
-95 353 0
-96 352 0
-96 354 0
-91 133 97 49 0
-91 133 97 85 0
-91 133 49 85 0
-91 97 49 85 0
-92 134 98 50 0
-92 134 98 86 0
-92 134 50 86 0
-92 98 50 86 0
-93 135 99 51 0
-93 135 99 87 0
-93 135 51 87 0
-93 99 51 87 0
-94 136 100 52 0
-94 136 100 88 0
-94 136 52 88 0
-94 100 52 88 0
-95 137 101 53 0
-95 137 101 89 0
-95 137 53 89 0
-95 101 53 89 0
-96 138 102 54 0
-96 138 102 90 0
-96 138 54 90 0
-96 102 54 90 0
-91 -133 -97 -49 0
-91 -133 -97 -85 0
-91 -133 -49 -85 0
-91 -97 -49 -85 0
-92 -134 -98 -50 0
-92 -134 -98 -86 0
-92 -134 -50 -86 0
-92 -98 -50 -86 0
-93 -135 -99 -51 0
-93 -135 -99 -87 0
-93 -135 -51 -87 0
-93 -99 -51 -87 0
-94 -136 -100 -52 0
-94 -136 -100 -88 0
-94 -136 -52 -88 0
-94 -100 -52 -88 0
-95 -137 -101 -53 0
-95 -137 -101 -89 0
-95 -137 -53 -89 0
-95 -101 -53 -89 0
-96 -138 -102 -54 0
-96 -138 -102 -90 0
-96 -138 -54 -90 0
-96 -102 -54 -90 0
97 98 99 100 101 102 0
-355 -356 0
-355 -357 0
-356 -357 0
-358 -359 0
-97 355 0
-97 358 0
-98 355 0
-98 359 0
-99 356 0
-99 358 0
-100 356 0
-100 359 0
-101 357 0
-101 358 0
-102 357 0
-102 359 0
-97 139 103 55 0
-97 139 103 91 0
-97 139 55 91 0
-97 103 55 91 0
-98 140 104 56 0
-98 140 104 92 0
-98 140 56 92 0
-98 104 56 92 0
-99 141 105 57 0
-99 141 105 93 0
-99 141 57 93 0
-99 105 57 93 0
-100 142 106 58 0
-100 142 106 94 0
-100 142 58 94 0
-100 106 58 94 0
-101 143 107 59 0
-101 143 107 95 0
-101 143 59 95 0
-101 107 59 95 0
-102 144 108 60 0
-102 144 108 96 0
-102 144 60 96 0
-102 108 60 96 0
-97 -139 -103 -55 0
-97 -139 -103 -91 0
-97 -139 -55 -91 0
-97 -103 -55 -91 0
-98 -140 -104 -56 0
-98 -140 -104 -92 0
-98 -140 -56 -92 0
-98 -104 -56 -92 0
-99 -141 -105 -57 0
-99 -141 -105 -93 0
-99 -141 -57 -93 0
-99 -105 -57 -93 0
-100 -142 -106 -58 0
-100 -142 -106 -94 0
-100 -142 -58 -94 0
-100 -106 -58 -94 0
-101 -143 -107 -59 0
-101 -143 -107 -95 0
-101 -143 -59 -95 0
-101 -107 -59 -95 0
-102 -144 -108 -60 0
-102 -144 -108 -96 0
-102 -144 -60 -96 0
-102 -108 -60 -96 0
103 104 105 106 107 108 0
-360 -361 0
-360 -362 0
-361 -362 0
-363 -364 0
-103 360 0
-103 363 0
-104 360 0
-104 364 0
-105 361 0
-105 363 0
-106 361 0
-106 364 0
-107 362 0
-107 363 0
-108 362 0
-108 364 0
-103 145 109 61 0
-103 145 109 97 0
-103 145 61 97 0
-103 109 61 97 0
-104 146 110 62 0
-104 146 110 98 0
-104 146 62 98 0
-104 110 62 98 0
-105 147 111 63 0
-105 147 111 99 0
-105 147 63 99 0
-105 111 63 99 0
-106 148 112 64 0
-106 148 112 100 0
-106 148 64 100 0
-106 112 64 100 0
-107 149 113 65 0
-107 149 113 101 0
-107 149 65 101 0
-107 113 65 101 0
-108 150 114 66 0
-108 150 114 102 0
-108 150 66 102 0
-108 114 66 102 0
-103 -145 -109 -61 0
-103 -145 -109 -97 0
-103 -145 -61 -97 0
-103 -109 -61 -97 0
-104 -146 -110 -62 0
-104 -146 -110 -98 0
-104 -146 -62 -98 0
-104 -110 -62 -98 0
-105 -147 -111 -63 0
-105 -147 -111 -99 0
-105 -147 -63 -99 0
-105 -111 -63 -99 0
-106 -148 -112 -64 0
-106 -148 -112 -100 0
-106 -148 -64 -100 0
-106 -112 -64 -100 0
-107 -149 -113 -65 0
-107 -149 -113 -101 0
-107 -149 -65 -101 0
-107 -113 -65 -101 0
-108 -150 -114 -66 0
-108 -150 -114 -102 0
-108 -150 -66 -102 0
-108 -114 -66 -102 0
109 110 111 112 113 114 0
-365 -366 0
-365 -367 0
-366 -367 0
-368 -369 0
-109 365 0
-109 368 0
-110 365 0
-110 369 0
-111 366 0
-111 368 0
-112 366 0
-112 369 0
-113 367 0
-113 368 0
-114 367 0
-114 369 0
-109 151 115 67 0
-109 151 115 103 0
-109 151 67 103 0
-109 115 67 103 0
-110 152 116 68 0
-110 152 116 104 0
-110 152 68 104 0
-110 116 68 104 0
-111 153 117 69 0
-111 153 117 105 0
-111 153 69 105 0
-111 117 69 105 0
-112 154 118 70 0
-112 154 118 106 0
-112 154 70 106 0
-112 118 70 106 0
-113 155 119 71 0
-113 155 119 107 0
-113 155 71 107 0
-113 119 71 107 0
-114 156 120 72 0
-114 156 120 108 0
-114 156 72 108 0
-114 120 72 108 0
-109 -151 -115 -67 0
-109 -151 -115 -103 0
-109 -151 -67 -103 0
-109 -115 -67 -103 0
-110 -152 -116 -68 0
-110 -152 -116 -104 0
-110 -152 -68 -104 0
-110 -116 -68 -104 0
-111 -153 -117 -69 0
-111 -153 -117 -105 0
-111 -153 -69 -105 0
-111 -117 -69 -105 0
-112 -154 -118 -70 0
-112 -154 -118 -106 0
-112 -154 -70 -106 0
-112 -118 -70 -106 0
-113 -155 -119 -71 0
-113 -155 -119 -107 0
-113 -155 -71 -107 0
-113 -119 -71 -107 0
-114 -156 -120 -72 0
-114 -156 -120 -108 0
-114 -156 -72 -108 0
-114 -120 -72 -108 0
115 116 117 118 119 120 0
-370 -371 0
-370 -372 0
-371 -372 0
-373 -374 0
-115 370 0
-115 373 0
-116 370 0
-116 374 0
-117 371 0
-117 373 0
-118 371 0
-118 374 0
-119 372 0
-119 373 0
-120 372 0
-120 374 0
-115 157 121 73 0
-115 157 121 109 0
-115 157 73 109 0
-115 121 73 109 0
-116 158 122 74 0
-116 158 122 110 0
-116 158 74 110 0
-116 122 74 110 0
-117 159 123 75 0
-117 159 123 111 0
-117 159 75 111 0
-117 123 75 111 0
-118 160 124 76 0
-118 160 124 112 0
-118 160 76 112 0
-118 124 76 112 0
-119 161 125 77 0
-119 161 125 113 0
-119 161 77 113 0
-119 125 77 113 0
-120 162 126 78 0
-120 162 126 114 0
-120 162 78 114 0
-120 126 78 114 0
-115 -157 -121 -73 0
-115 -157 -121 -109 0
-115 -157 -73 -109 0
-115 -121 -73 -109 0
-116 -158 -122 -74 0
-116 -158 -122 -110 0
-116 -158 -74 -110 0
-116 -122 -74 -110 0
-117 -159 -123 -75 0
-117 -159 -123 -111 0
-117 -159 -75 -111 0
-117 -123 -75 -111 0
-118 -160 -124 -76 0
-118 -160 -124 -112 0
-118 -160 -76 -112 0
-118 -124 -76 -112 0
-119 -161 -125 -77 0
-119 -161 -125 -113 0
-119 -161 -77 -113 0
-119 -125 -77 -113 0
-120 -162 -126 -78 0
-120 -162 -126 -114 0
-120 -162 -78 -114 0
-120 -126 -78 -114 0
121 122 123 124 125 126 0
-375 -376 0
-375 -377 0
-376 -377 0
-378 -379 0
-121 375 0
-121 378 0
-122 375 0
-122 379 0
-123 376 0
-123 378 0
-124 376 0
-124 379 0
-125 377 0
-125 378 0
-126 377 0
-126 379 0
-121 163 115 0
-121 163 79 0
-121 115 79 0
-122 164 116 0
-122 164 80 0
-122 116 80 0
-123 165 117 0
-123 165 81 0
-123 117 81 0
-124 166 118 0
-124 166 82 0
-124 118 82 0
-125 167 119 0
-125 167 83 0
-125 119 83 0
-126 168 120 0
-126 168 84 0
-126 120 84 0
-121 -163 -115 -79 0
-122 -164 -116 -80 0
-123 -165 -117 -81 0
-124 -166 -118 -82 0
-125 -167 -119 -83 0
-126 -168 -120 -84 0
129 0
-127 0
-128 0
-130 0
-131 0
-132 0
171 135 87 0
-171 -135 0
-171 -87 0
-135 -87 0
133 134 135 136 137 138 0
-380 -381 0
-380 -382 0
-381 -382 0
-383 -384 0
-133 380 0
-133 383 0
-134 380 0
-134 384 0
-135 381 0
-135 383 0
-136 381 0
-136 384 0
-137 382 0
-137 383 0
-138 382 0
-138 384 0
-133 175 139 91 0
-133 175 139 127 0
-133 175 91 127 0
-133 139 91 127 0
-134 176 140 92 0
-134 176 140 128 0
-134 176 92 128 0
-134 140 92 128 0
-135 177 141 93 0
-135 177 141 129 0
-135 177 93 129 0
-135 141 93 129 0
-136 178 142 94 0
-136 178 142 130 0
-136 178 94 130 0
-136 142 94 130 0
-137 179 143 95 0
-137 179 143 131 0
-137 179 95 131 0
-137 143 95 131 0
-138 180 144 96 0
-138 180 144 132 0
-138 180 96 132 0
-138 144 96 132 0
-133 -175 -139 -91 0
-133 -175 -139 -127 0
-133 -175 -91 -127 0
-133 -139 -91 -127 0
-134 -176 -140 -92 0
-134 -176 -140 -128 0
-134 -176 -92 -128 0
-134 -140 -92 -128 0
-135 -177 -141 -93 0
-135 -177 -141 -129 0
-135 -177 -93 -129 0
-135 -141 -93 -129 0
-136 -178 -142 -94 0
-136 -178 -142 -130 0
-136 -178 -94 -130 0
-136 -142 -94 -130 0
-137 -179 -143 -95 0
-137 -179 -143 -131 0
-137 -179 -95 -131 0
-137 -143 -95 -131 0
-138 -180 -144 -96 0
-138 -180 -144 -132 0
-138 -180 -96 -132 0
-138 -144 -96 -132 0
139 140 141 142 143 144 0
-385 -386 0
-385 -387 0
-386 -387 0
-388 -389 0
-139 385 0
-139 388 0
-140 385 0
-140 389 0
-141 386 0
-141 388 0
-142 386 0
-142 389 0
-143 387 0
-143 388 0
-144 387 0
-144 389 0
-139 181 145 97 0
-139 181 145 133 0
-139 181 97 133 0
-139 145 97 133 0
-140 182 146 98 0
-140 182 146 134 0
-140 182 98 134 0
-140 146 98 134 0
-141 183 147 99 0
-141 183 147 135 0
-141 183 99 135 0
-141 147 99 135 0
-142 184 148 100 0
-142 184 148 136 0
-142 184 100 136 0
-142 148 100 136 0
-143 185 149 101 0
-143 185 149 137 0
-143 185 101 137 0
-143 149 101 137 0
-144 186 150 102 0
-144 186 150 138 0
-144 186 102 138 0
-144 150 102 138 0
-139 -181 -145 -97 0
-139 -181 -145 -133 0
-139 -181 -97 -133 0
-139 -145 -97 -133 0
-140 -182 -146 -98 0
-140 -182 -146 -134 0
-140 -182 -98 -134 0
-140 -146 -98 -134 0
-141 -183 -147 -99 0
-141 -183 -147 -135 0
-141 -183 -99 -135 0
-141 -147 -99 -135 0
-142 -184 -148 -100 0
-142 -184 -148 -136 0
-142 -184 -100 -136 0
-142 -148 -100 -136 0
-143 -185 -149 -101 0
-143 -185 -149 -137 0
-143 -185 -101 -137 0
-143 -149 -101 -137 0
-144 -186 -150 -102 0
-144 -186 -150 -138 0
-144 -186 -102 -138 0
-144 -150 -102 -138 0
145 146 147 148 149 150 0
-390 -391 0
-390 -392 0
-391 -392 0
-393 -394 0
-145 390 0
-145 393 0
-146 390 0
-146 394 0
-147 391 0
-147 393 0
-148 391 0
-148 394 0
-149 392 0
-149 393 0
-150 392 0
-150 394 0
-145 187 151 103 0
-145 187 151 139 0
-145 187 103 139 0
-145 151 103 139 0
-146 188 152 104 0
-146 188 152 140 0
-146 188 104 140 0
-146 152 104 140 0
-147 189 153 105 0
-147 189 153 141 0
-147 189 105 141 0
-147 153 105 141 0
-148 190 154 106 0
-148 190 154 142 0
-148 190 106 142 0
-148 154 106 142 0
-149 191 155 107 0
-149 191 155 143 0
-149 191 107 143 0
-149 155 107 143 0
-150 192 156 108 0
-150 192 156 144 0
-150 192 108 144 0
-150 156 108 144 0
-145 -187 -151 -103 0
-145 -187 -151 -139 0
-145 -187 -103 -139 0
-145 -151 -103 -139 0
-146 -188 -152 -104 0
-146 -188 -152 -140 0
-146 -188 -104 -140 0
-146 -152 -104 -140 0
-147 -189 -153 -105 0
-147 -189 -153 -141 0
-147 -189 -105 -141 0
-147 -153 -105 -141 0
-148 -190 -154 -106 0
-148 -190 -154 -142 0
-148 -190 -106 -142 0
-148 -154 -106 -142 0
-149 -191 -155 -107 0
-149 -191 -155 -143 0
-149 -191 -107 -143 0
-149 -155 -107 -143 0
-150 -192 -156 -108 0
-150 -192 -156 -144 0
-150 -192 -108 -144 0
-150 -156 -108 -144 0
156 0
-151 0
-152 0
-153 0
-154 0
-155 0
198 162 114 150 0
-198 -162 0
-198 -114 0
-198 -150 0
-162 -114 0
-162 -150 0
-114 -150 0
157 158 159 160 161 162 0
-395 -396 0
-395 -397 0
-396 -397 0
-398 -399 0
-157 395 0
-157 398 0
-158 395 0
-158 399 0
-159 396 0
-159 398 0
-160 396 0
-160 399 0
-161 397 0
-161 398 0
-162 397 0
-162 399 0
-157 199 163 115 0
-157 199 163 151 0
-157 199 115 151 0
-157 163 115 151 0
-158 200 164 116 0
-158 200 164 152 0
-158 200 116 152 0
-158 164 116 152 0
-159 201 165 117 0
-159 201 165 153 0
-159 201 117 153 0
-159 165 117 153 0
-160 202 166 118 0
-160 202 166 154 0
-160 202 118 154 0
-160 166 118 154 0
-161 203 167 119 0
-161 203 167 155 0
-161 203 119 155 0
-161 167 119 155 0
-162 204 168 120 0
-162 204 168 156 0
-162 204 120 156 0
-162 168 120 156 0
-157 -199 -163 -115 0
-157 -199 -163 -151 0
-157 -199 -115 -151 0
-157 -163 -115 -151 0
-158 -200 -164 -116 0
-158 -200 -164 -152 0
-158 -200 -116 -152 0
-158 -164 -116 -152 0
-159 -201 -165 -117 0
-159 -201 -165 -153 0
-159 -201 -117 -153 0
-159 -165 -117 -153 0
-160 -202 -166 -118 0
-160 -202 -166 -154 0
-160 -202 -118 -154 0
-160 -166 -118 -154 0
-161 -203 -167 -119 0
-161 -203 -167 -155 0
-161 -203 -119 -155 0
-161 -167 -119 -155 0
-162 -204 -168 -120 0
-162 -204 -168 -156 0
-162 -204 -120 -156 0
-162 -168 -120 -156 0
163 164 165 166 167 168 0
-400 -401 0
-400 -402 0
-401 -402 0
-403 -404 0
-163 400 0
-163 403 0
-164 400 0
-164 404 0
-165 401 0
-165 403 0
-166 401 0
-166 404 0
-167 402 0
-167 403 0
-168 402 0
-168 404 0
-163 205 157 0
-163 205 121 0
-163 157 121 0
-164 206 158 0
-164 206 122 0
-164 158 122 0
-165 207 159 0
-165 207 123 0
-165 159 123 0
-166 208 160 0
-166 208 124 0
-166 160 124 0
-167 209 161 0
-167 209 125 0
-167 161 125 0
-168 210 162 0
-168 210 126 0
-168 162 126 0
-163 -205 -157 -121 0
-164 -206 -158 -122 0
-165 -207 -159 -123 0
-166 -208 -160 -124 0
-167 -209 -161 -125 0
-168 -210 -162 -126 0
170 0
-169 0
-171 0
-172 0
-173 0
-174 0
212 176 128 0
-212 -176 0
-212 -128 0
-176 -128 0
175 176 177 178 179 180 0
-405 -406 0
-405 -407 0
-406 -407 0
-408 -409 0
-175 405 0
-175 408 0
-176 405 0
-176 409 0
-177 406 0
-177 408 0
-178 406 0
-178 409 0
-179 407 0
-179 408 0
-180 407 0
-180 409 0
-175 217 181 133 0
-175 217 181 169 0
-175 217 133 169 0
-175 181 133 169 0
-176 218 182 134 0
-176 218 182 170 0
-176 218 134 170 0
-176 182 134 170 0
-177 219 183 135 0
-177 219 183 171 0
-177 219 135 171 0
-177 183 135 171 0
-178 220 184 136 0
-178 220 184 172 0
-178 220 136 172 0
-178 184 136 172 0
-179 221 185 137 0
-179 221 185 173 0
-179 221 137 173 0
-179 185 137 173 0
-180 222 186 138 0
-180 222 186 174 0
-180 222 138 174 0
-180 186 138 174 0
-175 -217 -181 -133 0
-175 -217 -181 -169 0
-175 -217 -133 -169 0
-175 -181 -133 -169 0
-176 -218 -182 -134 0
-176 -218 -182 -170 0
-176 -218 -134 -170 0
-176 -182 -134 -170 0
-177 -219 -183 -135 0
-177 -219 -183 -171 0
-177 -219 -135 -171 0
-177 -183 -135 -171 0
-178 -220 -184 -136 0
-178 -220 -184 -172 0
-178 -220 -136 -172 0
-178 -184 -136 -172 0
-179 -221 -185 -137 0
-179 -221 -185 -173 0
-179 -221 -137 -173 0
-179 -185 -137 -173 0
-180 -222 -186 -138 0
-180 -222 -186 -174 0
-180 -222 -138 -174 0
-180 -186 -138 -174 0
186 0
-181 0
-182 0
-183 0
-184 0
-185 0
228 192 144 180 0
-228 -192 0
-228 -144 0
-228 -180 0
-192 -144 0
-192 -180 0
-144 -180 0
187 188 189 190 191 192 0
-410 -411 0
-410 -412 0
-411 -412 0
-413 -414 0
-187 410 0
-187 413 0
-188 410 0
-188 414 0
-189 411 0
-189 413 0
-190 411 0
-190 414 0
-191 412 0
-191 413 0
-192 412 0
-192 414 0
-187 229 193 145 0
-187 229 193 181 0
-187 229 145 181 0
-187 193 145 181 0
-188 230 194 146 0
-188 230 194 182 0
-188 230 146 182 0
-188 194 146 182 0
-189 231 195 147 0
-189 231 195 183 0
-189 231 147 183 0
-189 195 147 183 0
-190 232 196 148 0
-190 232 196 184 0
-190 232 148 184 0
-190 196 148 184 0
-191 233 197 149 0
-191 233 197 185 0
-191 233 149 185 0
-191 197 149 185 0
-192 234 198 150 0
-192 234 198 186 0
-192 234 150 186 0
-192 198 150 186 0
-187 -229 -193 -145 0
-187 -229 -193 -181 0
-187 -229 -145 -181 0
-187 -193 -145 -181 0
-188 -230 -194 -146 0
-188 -230 -194 -182 0
-188 -230 -146 -182 0
-188 -194 -146 -182 0
-189 -231 -195 -147 0
-189 -231 -195 -183 0
-189 -231 -147 -183 0
-189 -195 -147 -183 0
-190 -232 -196 -148 0
-190 -232 -196 -184 0
-190 -232 -148 -184 0
-190 -196 -148 -184 0
-191 -233 -197 -149 0
-191 -233 -197 -185 0
-191 -233 -149 -185 0
-191 -197 -149 -185 0
-192 -234 -198 -150 0
-192 -234 -198 -186 0
-192 -234 -150 -186 0
-192 -198 -150 -186 0
196 0
-193 0
-194 0
-195 0
-197 0
-198 0
238 202 154 190 0
-238 -202 0
-238 -154 0
-238 -190 0
-202 -154 0
-202 -190 0
-154 -190 0
199 200 201 202 203 204 0
-415 -416 0
-415 -417 0
-416 -417 0
-418 -419 0
-199 415 0
-199 418 0
-200 415 0
-200 419 0
-201 416 0
-201 418 0
-202 416 0
-202 419 0
-203 417 0
-203 418 0
-204 417 0
-204 419 0
-199 241 205 157 0
-199 241 205 193 0
-199 241 157 193 0
-199 205 157 193 0
-200 242 206 158 0
-200 242 206 194 0
-200 242 158 194 0
-200 206 158 194 0
-201 243 207 159 0
-201 243 207 195 0
-201 243 159 195 0
-201 207 159 195 0
-202 244 208 160 0
-202 244 208 196 0
-202 244 160 196 0
-202 208 160 196 0
-203 245 209 161 0
-203 245 209 197 0
-203 245 161 197 0
-203 209 161 197 0
-204 246 210 162 0
-204 246 210 198 0
-204 246 162 198 0
-204 210 162 198 0
-199 -241 -205 -157 0
-199 -241 -205 -193 0
-199 -241 -157 -193 0
-199 -205 -157 -193 0
-200 -242 -206 -158 0
-200 -242 -206 -194 0
-200 -242 -158 -194 0
-200 -206 -158 -194 0
-201 -243 -207 -159 0
-201 -243 -207 -195 0
-201 -243 -159 -195 0
-201 -207 -159 -195 0
-202 -244 -208 -160 0
-202 -244 -208 -196 0
-202 -244 -160 -196 0
-202 -208 -160 -196 0
-203 -245 -209 -161 0
-203 -245 -209 -197 0
-203 -245 -161 -197 0
-203 -209 -161 -197 0
-204 -246 -210 -162 0
-204 -246 -210 -198 0
-204 -246 -162 -198 0
-204 -210 -162 -198 0
205 206 207 208 209 210 0
-420 -421 0
-420 -422 0
-421 -422 0
-423 -424 0
-205 420 0
-205 423 0
-206 420 0
-206 424 0
-207 421 0
-207 423 0
-208 421 0
-208 424 0
-209 422 0
-209 423 0
-210 422 0
-210 424 0
-205 247 199 0
-205 247 163 0
-205 199 163 0
-206 248 200 0
-206 248 164 0
-206 200 164 0
-207 249 201 0
-207 249 165 0
-207 201 165 0
-208 250 202 0
-208 250 166 0
-208 202 166 0
-209 251 203 0
-209 251 167 0
-209 203 167 0
-210 252 204 0
-210 252 168 0
-210 204 168 0
-205 -247 -199 -163 0
-206 -248 -200 -164 0
-207 -249 -201 -165 0
-208 -250 -202 -166 0
-209 -251 -203 -167 0
-210 -252 -204 -168 0
211 212 213 214 215 216 0
-425 -426 0
-425 -427 0
-426 -427 0
-428 -429 0
-211 425 0
-211 428 0
-212 425 0
-212 429 0
-213 426 0
-213 428 0
-214 426 0
-214 429 0
-215 427 0
-215 428 0
-216 427 0
-216 429 0
-211 253 217 0
-211 253 169 0
-211 217 169 0
-212 254 218 0
-212 254 170 0
-212 218 170 0
-213 255 219 0
-213 255 171 0
-213 219 171 0
-214 256 220 0
-214 256 172 0
-214 220 172 0
-215 257 221 0
-215 257 173 0
-215 221 173 0
-216 258 222 0
-216 258 174 0
-216 222 174 0
-211 -253 -217 -169 0
-212 -254 -218 -170 0
-213 -255 -219 -171 0
-214 -256 -220 -172 0
-215 -257 -221 -173 0
-216 -258 -222 -174 0
217 218 219 220 221 222 0
-430 -431 0
-430 -432 0
-431 -432 0
-433 -434 0
-217 430 0
-217 433 0
-218 430 0
-218 434 0
-219 431 0
-219 433 0
-220 431 0
-220 434 0
-221 432 0
-221 433 0
-222 432 0
-222 434 0
-217 259 223 175 0
-217 259 223 211 0
-217 259 175 211 0
-217 223 175 211 0
-218 260 224 176 0
-218 260 224 212 0
-218 260 176 212 0
-218 224 176 212 0
-219 261 225 177 0
-219 261 225 213 0
-219 261 177 213 0
-219 225 177 213 0
-220 262 226 178 0
-220 262 226 214 0
-220 262 178 214 0
-220 226 178 214 0
-221 263 227 179 0
-221 263 227 215 0
-221 263 179 215 0
-221 227 179 215 0
-222 264 228 180 0
-222 264 228 216 0
-222 264 180 216 0
-222 228 180 216 0
-217 -259 -223 -175 0
-217 -259 -223 -211 0
-217 -259 -175 -211 0
-217 -223 -175 -211 0
-218 -260 -224 -176 0
-218 -260 -224 -212 0
-218 -260 -176 -212 0
-218 -224 -176 -212 0
-219 -261 -225 -177 0
-219 -261 -225 -213 0
-219 -261 -177 -213 0
-219 -225 -177 -213 0
-220 -262 -226 -178 0
-220 -262 -226 -214 0
-220 -262 -178 -214 0
-220 -226 -178 -214 0
-221 -263 -227 -179 0
-221 -263 -227 -215 0
-221 -263 -179 -215 0
-221 -227 -179 -215 0
-222 -264 -228 -180 0
-222 -264 -228 -216 0
-222 -264 -180 -216 0
-222 -228 -180 -216 0
223 224 225 226 227 228 0
-435 -436 0
-435 -437 0
-436 -437 0
-438 -439 0
-223 435 0
-223 438 0
-224 435 0
-224 439 0
-225 436 0
-225 438 0
-226 436 0
-226 439 0
-227 437 0
-227 438 0
-228 437 0
-228 439 0
-223 265 229 181 0
-223 265 229 217 0
-223 265 181 217 0
-223 229 181 217 0
-224 266 230 182 0
-224 266 230 218 0
-224 266 182 218 0
-224 230 182 218 0
-225 267 231 183 0
-225 267 231 219 0
-225 267 183 219 0
-225 231 183 219 0
-226 268 232 184 0
-226 268 232 220 0
-226 268 184 220 0
-226 232 184 220 0
-227 269 233 185 0
-227 269 233 221 0
-227 269 185 221 0
-227 233 185 221 0
-228 270 234 186 0
-228 270 234 222 0
-228 270 186 222 0
-228 234 186 222 0
-223 -265 -229 -181 0
-223 -265 -229 -217 0
-223 -265 -181 -217 0
-223 -229 -181 -217 0
-224 -266 -230 -182 0
-224 -266 -230 -218 0
-224 -266 -182 -218 0
-224 -230 -182 -218 0
-225 -267 -231 -183 0
-225 -267 -231 -219 0
-225 -267 -183 -219 0
-225 -231 -183 -219 0
-226 -268 -232 -184 0
-226 -268 -232 -220 0
-226 -268 -184 -220 0
-226 -232 -184 -220 0
-227 -269 -233 -185 0
-227 -269 -233 -221 0
-227 -269 -185 -221 0
-227 -233 -185 -221 0
-228 -270 -234 -186 0
-228 -270 -234 -222 0
-228 -270 -186 -222 0
-228 -234 -186 -222 0
229 230 231 232 233 234 0
-440 -441 0
-440 -442 0
-441 -442 0
-443 -444 0
-229 440 0
-229 443 0
-230 440 0
-230 444 0
-231 441 0
-231 443 0
-232 441 0
-232 444 0
-233 442 0
-233 443 0
-234 442 0
-234 444 0
-229 271 235 187 0
-229 271 235 223 0
-229 271 187 223 0
-229 235 187 223 0
-230 272 236 188 0
-230 272 236 224 0
-230 272 188 224 0
-230 236 188 224 0
-231 273 237 189 0
-231 273 237 225 0
-231 273 189 225 0
-231 237 189 225 0
-232 274 238 190 0
-232 274 238 226 0
-232 274 190 226 0
-232 238 190 226 0
-233 275 239 191 0
-233 275 239 227 0
-233 275 191 227 0
-233 239 191 227 0
-234 276 240 192 0
-234 276 240 228 0
-234 276 192 228 0
-234 240 192 228 0
-229 -271 -235 -187 0
-229 -271 -235 -223 0
-229 -271 -187 -223 0
-229 -235 -187 -223 0
-230 -272 -236 -188 0
-230 -272 -236 -224 0
-230 -272 -188 -224 0
-230 -236 -188 -224 0
-231 -273 -237 -189 0
-231 -273 -237 -225 0
-231 -273 -189 -225 0
-231 -237 -189 -225 0
-232 -274 -238 -190 0
-232 -274 -238 -226 0
-232 -274 -190 -226 0
-232 -238 -190 -226 0
-233 -275 -239 -191 0
-233 -275 -239 -227 0
-233 -275 -191 -227 0
-233 -239 -191 -227 0
-234 -276 -240 -192 0
-234 -276 -240 -228 0
-234 -276 -192 -228 0
-234 -240 -192 -228 0
239 0
-235 0
-236 0
-237 0
-238 0
-240 0
281 245 197 233 0
-281 -245 0
-281 -197 0
-281 -233 0
-245 -197 0
-245 -233 0
-197 -233 0
241 242 243 244 245 246 0
-445 -446 0
-445 -447 0
-446 -447 0
-448 -449 0
-241 445 0
-241 448 0
-242 445 0
-242 449 0
-243 446 0
-243 448 0
-244 446 0
-244 449 0
-245 447 0
-245 448 0
-246 447 0
-246 449 0
-241 283 247 199 0
-241 283 247 235 0
-241 283 199 235 0
-241 247 199 235 0
-242 284 248 200 0
-242 284 248 236 0
-242 284 200 236 0
-242 248 200 236 0
-243 285 249 201 0
-243 285 249 237 0
-243 285 201 237 0
-243 249 201 237 0
-244 286 250 202 0
-244 286 250 238 0
-244 286 202 238 0
-244 250 202 238 0
-245 287 251 203 0
-245 287 251 239 0
-245 287 203 239 0
-245 251 203 239 0
-246 288 252 204 0
-246 288 252 240 0
-246 288 204 240 0
-246 252 204 240 0
-241 -283 -247 -199 0
-241 -283 -247 -235 0
-241 -283 -199 -235 0
-241 -247 -199 -235 0
-242 -284 -248 -200 0
-242 -284 -248 -236 0
-242 -284 -200 -236 0
-242 -248 -200 -236 0
-243 -285 -249 -201 0
-243 -285 -249 -237 0
-243 -285 -201 -237 0
-243 -249 -201 -237 0
-244 -286 -250 -202 0
-244 -286 -250 -238 0
-244 -286 -202 -238 0
-244 -250 -202 -238 0
-245 -287 -251 -203 0
-245 -287 -251 -239 0
-245 -287 -203 -239 0
-245 -251 -203 -239 0
-246 -288 -252 -204 0
-246 -288 -252 -240 0
-246 -288 -204 -240 0
-246 -252 -204 -240 0
247 248 249 250 251 252 0
-450 -451 0
-450 -452 0
-451 -452 0
-453 -454 0
-247 450 0
-247 453 0
-248 450 0
-248 454 0
-249 451 0
-249 453 0
-250 451 0
-250 454 0
-251 452 0
-251 453 0
-252 452 0
-252 454 0
-247 289 241 0
-247 289 205 0
-247 241 205 0
-248 290 242 0
-248 290 206 0
-248 242 206 0
-249 291 243 0
-249 291 207 0
-249 243 207 0
-250 292 244 0
-250 292 208 0
-250 244 208 0
-251 293 245 0
-251 293 209 0
-251 245 209 0
-252 294 246 0
-252 294 210 0
-252 246 210 0
-247 -289 -241 -205 0
-248 -290 -242 -206 0
-249 -291 -243 -207 0
-250 -292 -244 -208 0
-251 -293 -245 -209 0
-252 -294 -246 -210 0
253 254 255 256 257 258 0
-455 -456 0
-455 -457 0
-456 -457 0
-458 -459 0
-253 455 0
-253 458 0
-254 455 0
-254 459 0
-255 456 0
-255 458 0
-256 456 0
-256 459 0
-257 457 0
-257 458 0
-258 457 0
-258 459 0
-253 211 0
-253 259 0
-254 212 0
-254 260 0
-255 213 0
-255 261 0
-256 214 0
-256 262 0
-257 215 0
-257 263 0
-258 216 0
-258 264 0
259 260 261 262 263 264 0
-460 -461 0
-460 -462 0
-461 -462 0
-463 -464 0
-259 460 0
-259 463 0
-260 460 0
-260 464 0
-261 461 0
-261 463 0
-262 461 0
-262 464 0
-263 462 0
-263 463 0
-264 462 0
-264 464 0
-259 217 265 0
-259 217 253 0
-259 265 253 0
-260 218 266 0
-260 218 254 0
-260 266 254 0
-261 219 267 0
-261 219 255 0
-261 267 255 0
-262 220 268 0
-262 220 256 0
-262 268 256 0
-263 221 269 0
-263 221 257 0
-263 269 257 0
-264 222 270 0
-264 222 258 0
-264 270 258 0
-259 -217 -265 -253 0
-260 -218 -266 -254 0
-261 -219 -267 -255 0
-262 -220 -268 -256 0
-263 -221 -269 -257 0
-264 -222 -270 -258 0
265 266 267 268 269 270 0
-465 -466 0
-465 -467 0
-466 -467 0
-468 -469 0
-265 465 0
-265 468 0
-266 465 0
-266 469 0
-267 466 0
-267 468 0
-268 466 0
-268 469 0
-269 467 0
-269 468 0
-270 467 0
-270 469 0
-265 223 271 0
-265 223 259 0
-265 271 259 0
-266 224 272 0
-266 224 260 0
-266 272 260 0
-267 225 273 0
-267 225 261 0
-267 273 261 0
-268 226 274 0
-268 226 262 0
-268 274 262 0
-269 227 275 0
-269 227 263 0
-269 275 263 0
-270 228 276 0
-270 228 264 0
-270 276 264 0
-265 -223 -271 -259 0
-266 -224 -272 -260 0
-267 -225 -273 -261 0
-268 -226 -274 -262 0
-269 -227 -275 -263 0
-270 -228 -276 -264 0
272 0
-271 0
-273 0
-274 0
-275 0
-276 0
230 278 266 0
-230 -278 0
-230 -266 0
-278 -266 0
277 0
-278 0
-279 0
-280 0
-281 0
-282 0
235 283 271 0
-235 -283 0
-235 -271 0
-283 -271 0
283 284 285 286 287 288 0
-470 -471 0
-470 -472 0
-471 -472 0
-473 -474 0
-283 470 0
-283 473 0
-284 470 0
-284 474 0
-285 471 0
-285 473 0
-286 471 0
-286 474 0
-287 472 0
-287 473 0
-288 472 0
-288 474 0
-283 241 289 0
-283 241 277 0
-283 289 277 0
-284 242 290 0
-284 242 278 0
-284 290 278 0
-285 243 291 0
-285 243 279 0
-285 291 279 0
-286 244 292 0
-286 244 280 0
-286 292 280 0
-287 245 293 0
-287 245 281 0
-287 293 281 0
-288 246 294 0
-288 246 282 0
-288 294 282 0
-283 -241 -289 -277 0
-284 -242 -290 -278 0
-285 -243 -291 -279 0
-286 -244 -292 -280 0
-287 -245 -293 -281 0
-288 -246 -294 -282 0
289 290 291 292 293 294 0
-475 -476 0
-475 -477 0
-476 -477 0
-478 -479 0
-289 475 0
-289 478 0
-290 475 0
-290 479 0
-291 476 0
-291 478 0
-292 476 0
-292 479 0
-293 477 0
-293 478 0
-294 477 0
-294 479 0
-289 247 0
-289 283 0
-290 248 0
-290 284 0
-291 249 0
-291 285 0
-292 250 0
-292 286 0
-293 251 0
-293 287 0
-294 252 0
-294 288 0